NAME: toy20_uniform_seed202510288
TYPE: TSP
DIMENSION: 20
EDGE_WEIGHT_TYPE: EUC_2D
NODE_COORD_SECTION
1 322 559
2 10 490
3 510 119
4 443 481
5 931 359
6 639 936
7 770 431
8 386 856
9 94 501
10 842 613
11 279 279
12 645 201
13 749 357
14 374 991
15 885 670
16 914 787
17 798 689
18 451 87
19 824 393
20 837 947
EOF
